20 4
100 68 71 26 16 64 85 68 97 76 81 24 79 71 85 35 73 70 30 83
23 66 58 75 20 26 29 45 41 16 36 72 93 18 38 46 96 18 38 58
73 98 45 72 32 76 87 54 36 14 12 14 85 67 29 50 25 83 37 57
55 89 51 26 97 49 23 17 93 11 90 20 86 62 73 24 94 25 78 38
